Clp0006I 0  Obj 0 Primal inf 399.99996 (400) Dual inf 1099389 (40000)
Clp0006I 200  Obj -23464 Primal inf 2408 (372)
Clp0006I 297  Obj -10011 Primal inf 1652 (360)
Clp0006I 366  Obj -10011 Primal inf 1258 (354)
Clp0006I 477  Obj -10000 Primal inf 1494 (339)
Clp0006I 557  Obj -10000 Primal inf 804.99997 (318)
Clp0006I 658  Obj -10000 Primal inf 1133 (308)
Clp0006I 726  Obj -10000 Primal inf 845.99997 (270)
Clp0006I 808  Obj -10000 Primal inf 423.99998 (241)
Clp0006I 881  Obj -10000 Primal inf 488.99998 (210)
Clp0006I 953  Obj -10000 Primal inf 207.99998 (151)
Clp0006I 1035  Obj -10000 Primal inf 177.99999 (96)
Clp0006I 1104  Obj -9999 Primal inf 21.999998 (19)
Clp0006I 1162  Obj -9999
Clp0000I Optimal - objective value -9999
Clp0000I Optimal - objective value -9999
Node 0 depth 0 unsatisfied 0 sum 0 obj -9999 guess -9999 branching on -1
Clp0000I Optimal - objective value -9999
Cbc0004I Integer solution of -9999 found after 0 iterations and 0 nodes (0.20 seconds)
Cbc0001I Search completed - best objective -9999, took 0 iterations and 0 nodes (0.21 seconds)
Cbc0035I Maximum depth 0, 0 variables fixed on reduced cost
Clp0000I Optimal - objective value -9999
Clp0000I Optimal - objective value -9999
x_162 = 1
x_250 = 1
x_527 = 1
x_656 = 1
x_972 = 1
x_1176 = 1
x_1342 = 1
x_1442 = 1
x_1623 = 1
x_1960 = 1
x_2080 = 1
x_2228 = 1
x_2499 = 1
x_2611 = 1
x_2818 = 1
x_3154 = 1
x_3285 = 1
x_3598 = 1
x_3674 = 1
x_3999 = 1
x_4114 = 1
x_4306 = 1
x_4530 = 1
x_4672 = 1
x_4893 = 1
x_5122 = 1
x_5347 = 1
x_5433 = 1
x_5792 = 1
x_5931 = 1
x_6185 = 1
x_6222 = 1
x_6419 = 1
x_6739 = 1
x_6839 = 1
x_7082 = 1
x_7288 = 1
x_7467 = 1
x_7659 = 1
x_7869 = 1
x_8097 = 1
x_8252 = 1
x_8464 = 1
x_8684 = 1
x_8924 = 1
x_9078 = 1
x_9247 = 1
x_9494 = 1
x_9740 = 1
x_9866 = 1
x_10086 = 1
x_10257 = 1
x_10528 = 1
x_10713 = 1
x_10807 = 1
x_11117 = 1
x_11316 = 1
x_11435 = 1
x_11648 = 1
x_11840 = 1
x_12151 = 1
x_12287 = 1
x_12519 = 1
x_12638 = 1
x_12910 = 1
x_13105 = 1
x_13346 = 1
x_13553 = 1
x_13665 = 1
x_13845 = 1
x_14141 = 1
x_14332 = 1
x_14483 = 1
x_14743 = 1
x_14858 = 1
x_15079 = 1
x_15292 = 1
x_15470 = 1
x_15765 = 1
x_15804 = 1
x_16090 = 1
x_16373 = 1
x_16400 = 1
x_16750 = 1
x_16993 = 1
x_17183 = 1
x_17345 = 1
x_17408 = 1
x_17704 = 1
x_17978 = 1
x_18091 = 1
x_18253 = 1
x_18588 = 1
x_18695 = 1
x_18995 = 1
x_19076 = 1
x_19323 = 1
x_19567 = 1
x_19763 = 1
x_19949 = 1
x_20005 = 1
x_20358 = 1
x_20594 = 1
x_20738 = 1
x_20935 = 1
x_21156 = 1
x_21231 = 1
x_21437 = 1
x_21613 = 1
x_21803 = 1
x_22137 = 1
x_22374 = 1
x_22406 = 1
x_22660 = 1
x_22986 = 1
x_23010 = 1
x_23375 = 1
x_23475 = 1
x_23744 = 1
x_23902 = 1
x_24109 = 1
x_24301 = 1
x_24526 = 1
x_24615 = 1
x_24821 = 1
x_25190 = 1
x_25336 = 1
x_25555 = 1
x_25721 = 1
x_25812 = 1
x_26030 = 1
x_26333 = 1
x_26529 = 1
x_26646 = 1
x_26855 = 1
x_27177 = 1
x_27251 = 1
x_27597 = 1
x_27700 = 1
x_27871 = 1
x_28081 = 1
x_28244 = 1
x_28463 = 1
x_28626 = 1
x_28966 = 1
x_29189 = 1
x_29277 = 1
x_29534 = 1
x_29624 = 1
x_29979 = 1
x_30089 = 1
x_30320 = 1
x_30461 = 1
x_30614 = 1
x_30829 = 1
x_31054 = 1
x_31249 = 1
x_31434 = 1
x_31752 = 1
x_31948 = 1
x_32103 = 1
x_32227 = 1
x_32525 = 1
x_32707 = 1
x_32809 = 1
x_33098 = 1
x_33387 = 1
x_33468 = 1
x_33796 = 1
x_33911 = 1
x_34043 = 1
x_34262 = 1
x_34402 = 1
x_34771 = 1
x_34982 = 1
x_35073 = 1
x_35216 = 1
x_35518 = 1
x_35712 = 1
x_35991 = 1
x_36180 = 1
x_36368 = 1
x_36441 = 1
x_36601 = 1
x_36896 = 1
x_37115 = 1
x_37217 = 1
x_37432 = 1
x_37781 = 1
x_37970 = 1
x_38025 = 1
x_38357 = 1
x_38584 = 1
x_38759 = 1
x_38836 = 1
x_39161 = 1
x_39308 = 1
x_39564 = 1
x_39769 = 1
x_39820 = 1
real 0m0,406s user 0m0,350s sys 0m0,056s
